c Reduced graph for 2-FullIns_3 generated by Cyril Grelier
p edge 9 22
e 1 2
e 1 3
e 1 4
e 1 6
e 1 7
e 1 8
e 2 3
e 2 4
e 2 5
e 2 7
e 2 8
e 3 4
e 3 5
e 3 6
e 3 8
e 4 5
e 4 6
e 4 7
e 5 9
e 6 9
e 7 9
e 8 9
